7479093148091427242507,10,1,2,010,10,1,2,03,10,1,2,012,14,1,2,02,2,1,2,06,1,1,2,05,13,1,2,02,15,1,2,07,7,1,2,07,2,1,2,013,1,1,2,010,14,1,2,012,1,1,2,015,4,1,2,02,6,1,2,015,9,1,2,01,1,1,2,01,14,1,2,014,10,1,2,01,4,1,2,011,3,1,2,07,3,1,2,012,7,1,2,012,10,1,2,04,10,1,2,02,12,1,2,014,11,1,2,03,13,1,2,07,3,1,2,09,6,1,2,05,14,1,2,03,5,1,2,011,4,1,2,012,12,1,2,01,1,1,2,05,5,1,2,05,10,1,2,014,1,1,2,03,7,1,2,013,3,1,2,05,9,1,2,04,13,1,2,06,5,1,2,012,15,1,2,02,11,1,2,05,6,1,2,08,3,1,2,05,8,1,2,015,3,1,2,07,3,1,2,0